5
1 366 385
2 134 56
3 324 275
4 113 237
5 323 97
6 475 346
7 335 381
8 389 72
9 39 98
10 471 126
11 147 481
12 195 88
13 104 256
14 15 173
15 242 302
16 319 352
17 413 450
18 315 144
19 307 407
20 217 356
21 91 271
22 23 92
23 360 105
24 371 467
25 236 482
26 89 55
27 103 241
28 274 191
29 331 201
30 153 301
31 469 331
32 22 387
33 280 38
34 490 318
35 7 297
36 383 182
37 265 236
38 377 37
39 49 347
40 380 57
41 95 251
42 278 203
43 243 351
44 267 310
45 77 3
46 385 233
47 432 492
48 393 7
49 262 285
50 187 374